max: Z; 
r0 >= 0.0; 
r1 >= 0.0; 
r2 >= 0.0; 
r3 >= 0.0; 
r4 >= 0.0; 
r5 >= 0.0; 
r6 >= 0.0; 
r7 >= 0.0; 
r8 >= 0.0; 
r9 >= 0.0; 
r10 >= 0.0; 
r11 >= 0.0; 
r12 >= 0.0; 
r13 >= 0.0; 
r14 >= 0.0; 
r15 >= 0.0; 
r16 >= 0.0; 
r17 >= 0.0; 
r18 >= 0.0; 
r19 >= 0.0; 
r20 >= 0.0; 
r21 >= 0.0; 
r22 >= 0.0; 
r23 >= 0.0; 
r24 >= 0.0; 
r25 >= 0.0; 
r26 >= 0.0; 
r27 >= 0.0; 
r28 >= 0.0; 
r29 >= 0.0; 
r30 >= 0.0; 
r31 >= 0.0; 
r32 >= 0.0; 
r33 >= 0.0; 
r34 >= 0.0; 
r35 >= 0.0; 
r36 >= 0.0; 
r37 >= 0.0; 
r38 >= 0.0; 
r39 >= 0.0; 
r40 >= 0.0; 
r41 >= 0.0; 
r42 >= 0.0; 
r43 >= 0.0; 
r44 >= 0.0; 
r45 >= 0.0; 
r46 >= 0.0; 
r47 >= 0.0; 
r48 >= 0.0; 
r49 >= 0.0; 
r50 >= 0.0; 
r51 >= 0.0; 
r52 >= 0.0; 
r53 >= 0.0; 
r54 >= 0.0; 
r55 >= 0.0; 
r56 >= 0.0; 
r57 >= 0.0; 
r58 >= 0.0; 
r59 >= 0.0; 
r60 >= 0.0; 
r61 >= 0.0; 
r62 >= 0.0; 
r63 >= 0.0; 
r64 >= 0.0; 
r65 >= 0.0; 
r66 >= 0.0; 
r67 >= 0.0; 
r68 >= 0.0; 
r69 >= 0.0; 
r70 >= 0.0; 
r71 >= 0.0; 
r72 >= 0.0; 
r73 >= 0.0; 
r74 >= 0.0; 
r75 >= 0.0; 
r76 >= 0.0; 
r77 >= 0.0; 
r78 >= 0.0; 
r79 >= 0.0; 
r80 >= 0.0; 
r81 >= 0.0; 
r82 >= 0.0; 
r83 >= 0.0; 
r84 >= 0.0; 
r85 >= 0.0; 
r86 >= 0.0; 
r87 >= 0.0; 
r88 >= 0.0; 
r89 >= 0.0; 
r90 >= 0.0; 
r91 >= 0.0; 
r92 >= 0.0; 
r93 >= 0.0; 
r94 >= 0.0; 
r95 >= 0.0; 
r96 >= 0.0; 
r97 >= 0.0; 
r98 >= 0.0; 
r99 >= 0.0; 
r100 >= 0.0; 
r101 >= 0.0; 
r102 >= 0.0; 
r103 >= 0.0; 
r104 >= 0.0; 
r105 >= 0.0; 
r106 >= 0.0; 
r107 >= 0.0; 
r108 >= 0.0; 
r109 >= 0.0; 
r110 >= 0.0; 
r111 >= 0.0; 
r112 >= 0.0; 
r113 >= 0.0; 
r114 >= 0.0; 
r115 >= 0.0; 
r116 >= 0.0; 
r117 >= 0.0; 
r118 >= 0.0; 
r119 >= 0.0; 
r120 >= 0.0; 
r121 >= 0.0; 
r122 >= 0.0; 
r123 >= 0.0; 
r124 >= 0.0; 
r125 >= 0.0; 
r126 >= 0.0; 
r127 >= 0.0; 
r128 >= 0.0; 
r129 >= 0.0; 
r130 >= 0.0; 
r131 >= 0.0; 
r132 >= 0.0; 
r133 >= 0.0; 
r134 >= 0.0; 
r135 >= 0.0; 
r136 >= 0.0; 
r137 >= 0.0; 
r138 >= 0.0; 
r139 >= 0.0; 
r140 >= 0.0; 
r141 >= 0.0; 
r142 >= 0.0; 
r143 >= 0.0; 
r144 >= 0.0; 
r145 >= 0.0; 
r146 >= 0.0; 
r147 >= 0.0; 
r148 >= 0.0; 
r149 >= 0.0; 
r150 >= 0.0; 
r151 >= 0.0; 
r152 >= 0.0; 
r153 >= 0.0; 
r154 >= 0.0; 
r155 >= 0.0; 
r156 >= 0.0; 
r157 >= 0.0; 
r158 >= 0.0; 
r159 >= 0.0; 
r160 >= 0.0; 
r161 >= 0.0; 
r162 >= 0.0; 
r163 >= 0.0; 
r164 >= 0.0; 
r165 >= 0.0; 
r166 >= 0.0; 
r167 >= 0.0; 
r168 >= 0.0; 
r169 >= 0.0; 
r170 >= 0.0; 
r171 >= 0.0; 
r172 >= 0.0; 
r173 >= 0.0; 
r174 >= 0.0; 
r175 >= 0.0; 
r176 >= 0.0; 
r177 >= 0.0; 
r178 >= 0.0; 
r179 >= 0.0; 
r180 >= 0.0; 
r181 >= 0.0; 
r182 >= 0.0; 
r183 >= 0.0; 
r184 >= 0.0; 
r185 >= 0.0; 
r186 >= 0.0; 
r187 >= 0.0; 
r188 >= 0.0; 
r189 >= 0.0; 
r190 >= 0.0; 
r191 >= 0.0; 
r192 >= 0.0; 
r193 >= 0.0; 
r194 >= 0.0; 
r195 >= 0.0; 
r196 >= 0.0; 
r197 >= 0.0; 
r198 >= 0.0; 
r199 >= 0.0; 
r200 >= 0.0; 
r201 >= 0.0; 
r202 >= 0.0; 
r203 >= 0.0; 
r204 >= 0.0; 
r205 >= 0.0; 
r206 >= 0.0; 
r207 >= 0.0; 
r208 >= 0.0; 
r209 >= 0.0; 
r210 >= 0.0; 
r211 >= 0.0; 
r212 >= 0.0; 
r213 >= 0.0; 
r214 >= 0.0; 
r215 >= 0.0; 
r216 >= 0.0; 
r217 >= 0.0; 
r218 >= 0.0; 
r219 >= 0.0; 
r220 >= 0.0; 
r221 >= 0.0; 
r222 >= 0.0; 
r223 >= 0.0; 
r224 >= 0.0; 
r225 >= 0.0; 
r226 >= 0.0; 
r227 >= 0.0; 
r228 >= 0.0; 
r229 >= 0.0; 
r230 >= 0.0; 
r231 >= 0.0; 
r232 >= 0.0; 
r233 >= 0.0; 
r234 >= 0.0; 
r235 >= 0.0; 
r236 >= 0.0; 
r237 >= 0.0; 
r238 >= 0.0; 
r239 >= 0.0; 
r240 >= 0.0; 
r241 >= 0.0; 
r242 >= 0.0; 
r243 >= 0.0; 
r244 >= 0.0; 
r245 >= 0.0; 
r246 >= 0.0; 
r247 >= 0.0; 
r248 >= 0.0; 
r249 >= 0.0; 
r250 >= 0.0; 
r251 >= 0.0; 
r252 >= 0.0; 
r253 >= 0.0; 
r254 >= 0.0; 
r255 >= 0.0; 
r256 >= 0.0; 
r257 >= 0.0; 
r258 >= 0.0; 
r259 >= 0.0; 
r260 >= 0.0; 
r261 >= 0.0; 
r262 >= 0.0; 
r263 >= 0.0; 
r264 >= 0.0; 
r265 >= 0.0; 
r266 >= 0.0; 
r267 >= 0.0; 
r268 >= 0.0; 
r269 >= 0.0; 
r270 >= 0.0; 
r271 >= 0.0; 
r272 >= 0.0; 
r273 >= 0.0; 
r274 >= 0.0; 
r275 >= 0.0; 
r276 >= 0.0; 
r277 >= 0.0; 
r278 >= 0.0; 
r279 >= 0.0; 
r280 >= 0.0; 
r281 >= 0.0; 
r282 >= 0.0; 
r283 >= 0.0; 
r284 >= 0.0; 
r285 >= 0.0; 
r286 >= 0.0; 
r287 >= 0.0; 
r288 >= 0.0; 
r289 >= 0.0; 
r290 >= 0.0; 
r291 >= 0.0; 
r292 >= 0.0; 
r293 >= 0.0; 
r294 >= 0.0; 
r295 >= 0.0; 
r296 >= 0.0; 
r297 >= 0.0; 
r298 >= 0.0; 
r299 >= 0.0; 
r300 >= 0.0; 
r301 >= 0.0; 
r302 >= 0.0; 
r303 >= 0.0; 
r304 >= 0.0; 
r305 >= 0.0; 
r306 >= 0.0; 
r307 >= 0.0; 
r308 >= 0.0; 
r309 >= 0.0; 
r310 >= 0.0; 
r311 >= 0.0; 
r312 >= 0.0; 
r313 >= 0.0; 
r314 >= 0.0; 
r315 >= 0.0; 
r316 >= 0.0; 
r317 >= 0.0; 
r318 >= 0.0; 
r319 >= 0.0; 
r320 >= 0.0; 
r321 >= 0.0; 
r322 >= 0.0; 
r323 >= 0.0; 
r324 >= 0.0; 
r325 >= 0.0; 
r326 >= 0.0; 
r327 >= 0.0; 
r328 >= 0.0; 
r329 >= 0.0; 
r330 >= 0.0; 
r331 >= 0.0; 
r332 >= 0.0; 
r333 >= 0.0; 
r334 >= 0.0; 
r335 >= 0.0; 
r336 >= 0.0; 
r337 >= 0.0; 
r338 >= 0.0; 
r339 >= 0.0; 
r340 >= 0.0; 
r341 >= 0.0; 
r342 >= 0.0; 
r343 >= 0.0; 
r344 >= 0.0; 
r345 >= 0.0; 
r346 >= 0.0; 
r347 >= 0.0; 
r348 >= 0.0; 
r349 >= 0.0; 
r350 >= 0.0; 
r351 >= 0.0; 
r352 >= 0.0; 
r353 >= 0.0; 
r354 >= 0.0; 
r355 >= 0.0; 
r356 >= 0.0; 
r357 >= 0.0; 
r358 >= 0.0; 
r359 >= 0.0; 
r360 >= 0.0; 
r361 >= 0.0; 
r362 >= 0.0; 
r363 >= 0.0; 
r364 >= 0.0; 
r365 >= 0.0; 
r366 >= 0.0; 
r367 >= 0.0; 
r368 >= 0.0; 
r369 >= 0.0; 
r370 >= 0.0; 
r371 >= 0.0; 
r372 >= 0.0; 
r373 >= 0.0; 
r374 >= 0.0; 
r375 >= 0.0; 
r376 >= 0.0; 
r377 >= 0.0; 
r378 >= 0.0; 
r379 >= 0.0; 
r380 >= 0.0; 
r381 >= 0.0; 
r382 >= 0.0; 
r383 >= 0.0; 
r384 >= 0.0; 
r385 >= 0.0; 
r386 >= 0.0; 
r387 >= 0.0; 
r388 >= 0.0; 
r389 >= 0.0; 
r390 >= 0.0; 
r391 >= 0.0; 
r392 >= 0.0; 
r393 >= 0.0; 
r394 >= 0.0; 
r395 >= 0.0; 
r396 >= 0.0; 
r397 >= 0.0; 
r398 >= 0.0; 
r399 >= 0.0; 
r400 >= 0.0; 
r401 >= 0.0; 
r402 >= 0.0; 
r403 >= 0.0; 
r404 >= 0.0; 
r405 >= 0.0; 
r406 >= 0.0; 
r407 >= 0.0; 
r408 >= 0.0; 
r409 >= 0.0; 
r410 >= 0.0; 
r411 >= 0.0; 
r412 >= 0.0; 
r413 >= 0.0; 
r414 >= 0.0; 
r415 >= 0.0; 
r416 >= 0.0; 
r417 >= 0.0; 
r418 >= 0.0; 
r419 >= 0.0; 
r420 >= 0.0; 
r421 >= 0.0; 
r422 >= 0.0; 
r423 >= 0.0; 
r424 >= 0.0; 
r425 >= 0.0; 
r426 >= 0.0; 
r427 >= 0.0; 
r428 >= 0.0; 
r429 >= 0.0; 
r430 >= 0.0; 
r431 >= 0.0; 
r432 >= 0.0; 
r433 >= 0.0; 
r434 >= 0.0; 
r435 >= 0.0; 
r436 >= 0.0; 
r437 >= 0.0; 
r438 >= 0.0; 
r439 >= 0.0; 
r440 >= 0.0; 
r441 >= 0.0; 
r442 >= 0.0; 
r443 >= 0.0; 
r444 >= 0.0; 
r445 >= 0.0; 
r446 >= 0.0; 
r447 >= 0.0; 
r448 >= 0.0; 
r449 >= 0.0; 
r450 >= 0.0; 
r451 >= 0.0; 
r452 >= 0.0; 
r453 >= 0.0; 
r454 >= 0.0; 
r455 >= 0.0; 
r456 >= 0.0; 
r457 >= 0.0; 
r458 >= 0.0; 
r459 >= 0.0; 
r460 >= 0.0; 
r461 >= 0.0; 
r462 >= 0.0; 
r463 >= 0.0; 
r464 >= 0.0; 
r465 >= 0.0; 
r466 >= 0.0; 
r467 >= 0.0; 
r468 >= 0.0; 
r469 >= 0.0; 
r470 >= 0.0; 
r471 >= 0.0; 
r472 >= 0.0; 
r473 >= 0.0; 
r474 >= 0.0; 
r475 >= 0.0; 
r476 >= 0.0; 
r477 >= 0.0; 
r478 >= 0.0; 
r479 >= 0.0; 
r480 >= 0.0; 
r481 >= 0.0; 
r482 >= 0.0; 
r483 >= 0.0; 
r484 >= 0.0; 
r485 >= 0.0; 
r486 >= 0.0; 
r487 >= 0.0; 
r488 >= 0.0; 
r489 >= 0.0; 
r490 >= 0.0; 
r491 >= 0.0; 
r492 >= 0.0; 
r493 >= 0.0; 
r494 >= 0.0; 
r495 >= 0.0; 
r496 >= 0.0; 
r497 >= 0.0; 
r498 >= 0.0; 
r499 >= 0.0; 
r500 >= 0.0; 
r501 >= 0.0; 
r502 >= 0.0; 
r503 >= 0.0; 
r504 >= 0.0; 
r505 >= 0.0; 
r506 >= 0.0; 
r507 >= 0.0; 
r508 >= 0.0; 
r509 >= 0.0; 
r510 >= 0.0; 
r511 >= 0.0; 
r512 >= 0.0; 
r513 >= 0.0; 
r514 >= 0.0; 
r515 >= 0.0; 
r516 >= 0.0; 
r517 >= 0.0; 
r518 >= 0.0; 
r519 >= 0.0; 
r520 >= 0.0; 
r521 >= 0.0; 
r522 >= 0.0; 
r523 >= 0.0; 
r524 >= 0.0; 
r525 >= 0.0; 
r526 >= 0.0; 
r527 >= 0.0; 
r528 >= 0.0; 
r529 >= 0.0; 
r530 >= 0.0; 
r531 >= 0.0; 
r532 >= 0.0; 
r533 >= 0.0; 
r534 >= 0.0; 
r535 >= 0.0; 
r536 >= 0.0; 
r537 >= 0.0; 
r538 >= 0.0; 
r539 >= 0.0; 
r540 >= 0.0; 
r541 >= 0.0; 
r542 >= 0.0; 
r543 >= 0.0; 
r544 >= 0.0; 
r545 >= 0.0; 
r546 >= 0.0; 
r547 >= 0.0; 
r548 >= 0.0; 
r549 >= 0.0; 
r550 >= 0.0; 
r551 >= 0.0; 
r552 >= 0.0; 
r553 >= 0.0; 
r554 >= 0.0; 
r555 >= 0.0; 
r556 >= 0.0; 
r557 >= 0.0; 
r558 >= 0.0; 
r559 >= 0.0; 
r560 >= 0.0; 
r561 >= 0.0; 
r562 >= 0.0; 
r563 >= 0.0; 
r564 >= 0.0; 
r565 >= 0.0; 
r566 >= 0.0; 
r567 >= 0.0; 
r568 >= 0.0; 
r569 >= 0.0; 
r570 >= 0.0; 
r571 >= 0.0; 
r572 >= 0.0; 
r573 >= 0.0; 
r574 >= 0.0; 
r575 >= 0.0; 
r576 >= 0.0; 
r577 >= 0.0; 
r578 >= 0.0; 
r579 >= 0.0; 
r580 >= 0.0; 
r581 >= 0.0; 
r582 >= 0.0; 
r583 >= 0.0; 
r584 >= 0.0; 
r585 >= 0.0; 
r586 >= 0.0; 
r587 >= 0.0; 
r588 >= 0.0; 
r589 >= 0.0; 
r590 >= 0.0; 
r591 >= 0.0; 
r592 >= 0.0; 
r593 >= 0.0; 
r594 >= 0.0; 
r595 >= 0.0; 
r596 >= 0.0; 
r597 >= 0.0; 
r598 >= 0.0; 
r599 >= 0.0; 
r0+r4+r26+r30 <= 100.0; 
r0+r42+r540 <= 100.0; 
r0+r4+r42+r362+r598 <= 100.0; 
r1+r5+r43+r363+r599 <= 100.0; 
r1+r43+r541 <= 100.0; 
r1+r5+r27+r31 <= 100.0; 
r2+r8+r34 <= 100.0; 
r2+r112+r116 <= 100.0; 
r2+r599 <= 100.0; 
r3+r598 <= 100.0; 
r3+r113+r117 <= 100.0; 
r3+r9+r35 <= 100.0; 
r4+r40+r322+r548 <= 100.0; 
r4+r548+r592+r598 <= 100.0; 
r5+r549+r593+r599 <= 100.0; 
r5+r41+r323+r549 <= 100.0; 
r6+r12+r21+r27+r329 <= 100.0; 
r6+r332 <= 100.0; 
r6 <= 100.0; 
r6+r363 <= 100.0; 
r7+r362 <= 100.0; 
r7 <= 100.0; 
r7+r333 <= 100.0; 
r7+r13+r20+r26+r328 <= 100.0; 
r8+r82+r88+r113 <= 100.0; 
r8+r82+r234 <= 100.0; 
r8+r102 <= 100.0; 
r9+r103 <= 100.0; 
r9+r83+r235 <= 100.0; 
r9+r83+r89+r112 <= 100.0; 
r10+r274 <= 100.0; 
r10+r286 <= 100.0; 
r11+r287 <= 100.0; 
r11+r275 <= 100.0; 
r12 <= 100.0; 
r12+r14+r86+r287 <= 100.0; 
r13+r15+r87+r286 <= 100.0; 
r13 <= 100.0; 
r14+r135+r271+r275 <= 100.0; 
r14+r23+r29+r321 <= 100.0; 
r15+r22+r28+r320 <= 100.0; 
r15+r134+r270+r274 <= 100.0; 
r16+r134+r138+r270+r306 <= 100.0; 
r16+r120 <= 100.0; 
r16 <= 100.0; 
r17 <= 100.0; 
r17+r121 <= 100.0; 
r17+r135+r139+r271+r307 <= 100.0; 
r18 <= 100.0; 
r18+r196+r198 <= 100.0; 
r18 <= 100.0; 
r19 <= 100.0; 
r19+r197+r199 <= 100.0; 
r19 <= 100.0; 
r20 <= 100.0; 
r20+r22+r154+r440 <= 100.0; 
r21+r23+r155+r441 <= 100.0; 
r21 <= 100.0; 
r22+r276 <= 100.0; 
r23+r277 <= 100.0; 
r24+r333 <= 100.0; 
r24+r255 <= 100.0; 
r24+r531 <= 100.0; 
r25+r530 <= 100.0; 
r25+r254 <= 100.0; 
r25+r332 <= 100.0; 
r26+r44+r268+r512+r516 <= 100.0; 
r26 <= 100.0; 
r27 <= 100.0; 
r27+r45+r269+r513+r517 <= 100.0; 
r28+r320 <= 100.0; 
r28+r494 <= 100.0; 
r28 <= 100.0; 
r29 <= 100.0; 
r29+r495 <= 100.0; 
r29+r321 <= 100.0; 
r30+r34+r374 <= 100.0; 
r30+r46 <= 100.0; 
r31+r47 <= 100.0; 
r31+r35+r375 <= 100.0; 
r32+r348+r371+r375+r377 <= 100.0; 
r32+r378 <= 100.0; 
r32+r81+r89 <= 100.0; 
r33+r80+r88 <= 100.0; 
r33+r379 <= 100.0; 
r33+r349+r370+r374+r376 <= 100.0; 
r34+r80+r84+r117+r465 <= 100.0; 
r35+r81+r85+r116+r464 <= 100.0; 
r36 <= 100.0; 
r36+r172+r302+r308 <= 100.0; 
r36+r171 <= 100.0; 
r37+r170 <= 100.0; 
r37+r173+r303+r309 <= 100.0; 
r37 <= 100.0; 
r38 <= 100.0; 
r38+r56+r380+r388 <= 100.0; 
r38+r88+r116 <= 100.0; 
r39+r89+r117 <= 100.0; 
r39+r57+r381+r389 <= 100.0; 
r39 <= 100.0; 
r40+r322+r326+r596 <= 100.0; 
r40 <= 100.0; 
r41 <= 100.0; 
r41+r323+r327+r597 <= 100.0; 
r42 <= 100.0; 
r43 <= 100.0; 
r44 <= 100.0; 
r44+r48+r572 <= 100.0; 
r45+r49+r573 <= 100.0; 
r45 <= 100.0; 
r46+r171 <= 100.0; 
r46 <= 100.0; 
r47 <= 100.0; 
r47+r170 <= 100.0; 
r48+r541+r549 <= 100.0; 
r48+r506+r572+r578 <= 100.0; 
r49+r507+r573+r579 <= 100.0; 
r49+r540+r548 <= 100.0; 
r50+r54+r441+r445 <= 100.0; 
r50+r228 <= 100.0; 
r51+r229 <= 100.0; 
r51+r55+r440+r444 <= 100.0; 
r52+r58+r276 <= 100.0; 
r52+r70+r74+r76 <= 100.0; 
r52+r412 <= 100.0; 
r53+r413 <= 100.0; 
r53+r71+r75+r77 <= 100.0; 
r53+r59+r277 <= 100.0; 
r54+r223+r229+r285 <= 100.0; 
r54+r213+r219+r220+r224+r245+r251 <= 100.0; 
r54+r210+r214+r229 <= 100.0; 
r55+r211+r215+r228 <= 100.0; 
r55+r212+r218+r221+r225+r244+r250 <= 100.0; 
r55+r222+r228+r284 <= 100.0; 
r56 <= 100.0; 
r56+r110+r396 <= 100.0; 
r56+r211 <= 100.0; 
r57+r210 <= 100.0; 
r57+r111+r397 <= 100.0; 
r57 <= 100.0; 
r58+r78 <= 100.0; 
r58+r437+r469 <= 100.0; 
r58+r469 <= 100.0; 
r59+r468 <= 100.0; 
r59+r436+r468 <= 100.0; 
r59+r79 <= 100.0; 
r60+r329+r375 <= 100.0; 
r60 <= 100.0; 
r60 <= 100.0; 
r61 <= 100.0; 
r61 <= 100.0; 
r61+r328+r374 <= 100.0; 
r62+r66 <= 100.0; 
r62+r416 <= 100.0; 
r62+r419 <= 100.0; 
r63+r418 <= 100.0; 
r63+r417 <= 100.0; 
r63+r67 <= 100.0; 
r64+r374 <= 100.0; 
r64+r515+r519 <= 100.0; 
r64 <= 100.0; 
r65 <= 100.0; 
r65+r514+r518 <= 100.0; 
r65+r375 <= 100.0; 
r66+r382 <= 100.0; 
r66+r68 <= 100.0; 
r67+r69 <= 100.0; 
r67+r383 <= 100.0; 
r68+r104 <= 100.0; 
r68+r384 <= 100.0; 
r69+r385 <= 100.0; 
r69+r105 <= 100.0; 
r70+r76+r344+r416 <= 100.0; 
r70+r186 <= 100.0; 
r71+r187 <= 100.0; 
r71+r77+r345+r417 <= 100.0; 
r72+r508 <= 100.0; 
r72 <= 100.0; 
r72 <= 100.0; 
r73 <= 100.0; 
r73 <= 100.0; 
r73+r509 <= 100.0; 
r74 <= 100.0; 
r74 <= 100.0; 
r74+r187 <= 100.0; 
r75+r186 <= 100.0; 
r75 <= 100.0; 
r75 <= 100.0; 
r76+r591+r595 <= 100.0; 
r76+r327 <= 100.0; 
r77+r326 <= 100.0; 
r77+r590+r594 <= 100.0; 
r78+r586 <= 100.0; 
r78+r132+r234+r434 <= 100.0; 
r78 <= 100.0; 
r79 <= 100.0; 
r79+r133+r235+r435 <= 100.0; 
r79+r587 <= 100.0; 
r82+r565 <= 100.0; 
r83+r564 <= 100.0; 
r84+r465 <= 100.0; 
r84+r539 <= 100.0; 
r85+r538 <= 100.0; 
r85+r464 <= 100.0; 
r86+r467 <= 100.0; 
r86 <= 100.0; 
r87 <= 100.0; 
r87+r466 <= 100.0; 
r88+r90+r98+r113 <= 100.0; 
r89+r91+r99+r112 <= 100.0; 
r90+r114+r118+r181 <= 100.0; 
r90+r188+r337 <= 100.0; 
r91+r189+r336 <= 100.0; 
r91+r115+r119+r180 <= 100.0; 
r92+r94+r96+r122+r434 <= 100.0; 
r92+r142+r451+r455 <= 100.0; 
r92 <= 100.0; 
r93 <= 100.0; 
r93+r143+r450+r454 <= 100.0; 
r93+r95+r97+r123+r435 <= 100.0; 
r94+r144+r209+r434+r454 <= 100.0; 
r94+r98 <= 100.0; 
r95+r99 <= 100.0; 
r95+r145+r208+r435+r455 <= 100.0; 
r96 <= 100.0; 
r96 <= 100.0; 
r97 <= 100.0; 
r97 <= 100.0; 
r98+r388+r397 <= 100.0; 
r98+r392 <= 100.0; 
r99+r393 <= 100.0; 
r99+r389+r396 <= 100.0; 
r100+r239+r422+r564+r596 <= 100.0; 
r100+r429+r596 <= 100.0; 
r100+r108+r384 <= 100.0; 
r101+r109+r385 <= 100.0; 
r101+r428+r597 <= 100.0; 
r101+r238+r423+r565+r597 <= 100.0; 
r102+r214 <= 100.0; 
r102+r288+r404 <= 100.0; 
r103+r289+r405 <= 100.0; 
r103+r215 <= 100.0; 
r104+r494+r597 <= 100.0; 
r104+r329+r457 <= 100.0; 
r105+r328+r456 <= 100.0; 
r105+r495+r596 <= 100.0; 
r106+r108 <= 100.0; 
r106+r348 <= 100.0; 
r106+r289 <= 100.0; 
r107+r288 <= 100.0; 
r107+r349 <= 100.0; 
r107+r109 <= 100.0; 
r108+r372 <= 100.0; 
r109+r373 <= 100.0; 
r110+r248+r406 <= 100.0; 
r111+r249+r407 <= 100.0; 
r114+r186 <= 100.0; 
r114+r247+r249+r594 <= 100.0; 
r115+r246+r248+r595 <= 100.0; 
r115+r187 <= 100.0; 
r118+r182+r331 <= 100.0; 
r118 <= 100.0; 
r119 <= 100.0; 
r119+r183+r330 <= 100.0; 
r120+r130+r132+r307+r577 <= 100.0; 
r121+r131+r133+r306+r576 <= 100.0; 
r122+r126+r133 <= 100.0; 
r122 <= 100.0; 
r123 <= 100.0; 
r123+r127+r132 <= 100.0; 
r124+r159+r576+r583+r589 <= 100.0; 
r124+r151+r159 <= 100.0; 
r124+r126 <= 100.0; 
r125+r127 <= 100.0; 
r125+r150+r158 <= 100.0; 
r125+r158+r577+r582+r588 <= 100.0; 
r126 <= 100.0; 
r127 <= 100.0; 
r128+r582+r586 <= 100.0; 
r128+r581 <= 100.0; 
r128+r333 <= 100.0; 
r129+r332 <= 100.0; 
r129+r580 <= 100.0; 
r129+r583+r587 <= 100.0; 
r130+r586 <= 100.0; 
r131+r587 <= 100.0; 
r134+r230+r236 <= 100.0; 
r135+r231+r237 <= 100.0; 
r136+r231+r235+r237 <= 100.0; 
r136+r567 <= 100.0; 
r136+r227+r258 <= 100.0; 
r137+r226+r259 <= 100.0; 
r137+r566 <= 100.0; 
r137+r230+r234+r236 <= 100.0; 
r138 <= 100.0; 
r138+r172 <= 100.0; 
r139+r173 <= 100.0; 
r139 <= 100.0; 
r140+r208 <= 100.0; 
r140+r201 <= 100.0; 
r141+r200 <= 100.0; 
r141+r209 <= 100.0; 
r142 <= 100.0; 
r142+r170 <= 100.0; 
r143+r171 <= 100.0; 
r143 <= 100.0; 
r144+r205+r209+r431 <= 100.0; 
r144+r185+r200 <= 100.0; 
r145+r184+r201 <= 100.0; 
r145+r204+r208+r430 <= 100.0; 
r146+r148+r222 <= 100.0; 
r146 <= 100.0; 
r146+r184 <= 100.0; 
r147+r185 <= 100.0; 
r147 <= 100.0; 
r147+r149+r223 <= 100.0; 
r148+r197+r562 <= 100.0; 
r148+r161+r190 <= 100.0; 
r149+r160+r191 <= 100.0; 
r149+r196+r563 <= 100.0; 
r150+r247+r575 <= 100.0; 
r150+r351+r484 <= 100.0; 
r151+r350+r485 <= 100.0; 
r151+r246+r574 <= 100.0; 
r152+r156+r444 <= 100.0; 
r152+r357 <= 100.0; 
r152+r264 <= 100.0; 
r153+r265 <= 100.0; 
r153+r356 <= 100.0; 
r153+r157+r445 <= 100.0; 
r154+r445 <= 100.0; 
r154+r156 <= 100.0; 
r155+r157 <= 100.0; 
r155+r444 <= 100.0; 
r156+r441+r487 <= 100.0; 
r157+r440+r486 <= 100.0; 
r158+r588 <= 100.0; 
r158 <= 100.0; 
r159 <= 100.0; 
r159+r589 <= 100.0; 
r160+r191 <= 100.0; 
r160+r166 <= 100.0; 
r161+r167 <= 100.0; 
r161+r190 <= 100.0; 
r162+r264 <= 100.0; 
r162+r269+r518 <= 100.0; 
r162 <= 100.0; 
r163 <= 100.0; 
r163+r268+r519 <= 100.0; 
r163+r265 <= 100.0; 
r164+r168 <= 100.0; 
r164+r278+r424+r558+r568 <= 100.0; 
r164+r427 <= 100.0; 
r165+r426 <= 100.0; 
r165+r279+r425+r559+r569 <= 100.0; 
r165+r169 <= 100.0; 
r166+r193+r354 <= 100.0; 
r166+r193 <= 100.0; 
r167+r192 <= 100.0; 
r167+r192+r355 <= 100.0; 
r168+r292+r550+r554+r556+r569 <= 100.0; 
r168+r297+r367 <= 100.0; 
r169+r296+r366 <= 100.0; 
r169+r293+r551+r555+r557+r568 <= 100.0; 
r172+r301+r307 <= 100.0; 
r173+r300+r306 <= 100.0; 
r174 <= 100.0; 
r174+r226 <= 100.0; 
r174+r388+r390 <= 100.0; 
r175+r389+r391 <= 100.0; 
r175+r227 <= 100.0; 
r175 <= 100.0; 
r176+r339 <= 100.0; 
r176+r394+r555 <= 100.0; 
r176+r178+r299+r366+r391 <= 100.0; 
r177+r179+r298+r367+r390 <= 100.0; 
r177+r395+r554 <= 100.0; 
r177+r338 <= 100.0; 
r178+r584 <= 100.0; 
r178 <= 100.0; 
r179 <= 100.0; 
r179+r585 <= 100.0; 
r180 <= 100.0; 
r181 <= 100.0; 
r182+r188 <= 100.0; 
r183+r189 <= 100.0; 
r184 <= 100.0; 
r185 <= 100.0; 
r188+r337 <= 100.0; 
r189+r336 <= 100.0; 
r190+r192+r194 <= 100.0; 
r191+r193+r195 <= 100.0; 
r194+r198 <= 100.0; 
r194+r264+r354 <= 100.0; 
r195+r265+r355 <= 100.0; 
r195+r199 <= 100.0; 
r196+r216+r295+r297 <= 100.0; 
r197+r217+r294+r296 <= 100.0; 
r198 <= 100.0; 
r199 <= 100.0; 
r202+r206 <= 100.0; 
r202 <= 100.0; 
r203 <= 100.0; 
r203+r207 <= 100.0; 
r204+r378+r392+r433+r515 <= 100.0; 
r204+r371 <= 100.0; 
r205+r370 <= 100.0; 
r205+r379+r393+r432+r514 <= 100.0; 
r206+r254 <= 100.0; 
r206+r377+r535 <= 100.0; 
r207+r376+r534 <= 100.0; 
r207+r255 <= 100.0; 
r210+r400+r404 <= 100.0; 
r211+r401+r405 <= 100.0; 
r212+r244+r280 <= 100.0; 
r212+r266+r283+r402 <= 100.0; 
r213+r267+r282+r403 <= 100.0; 
r213+r245+r281 <= 100.0; 
r214+r412 <= 100.0; 
r215+r413 <= 100.0; 
r216+r220+r226+r228+r567 <= 100.0; 
r216 <= 100.0; 
r217 <= 100.0; 
r217+r221+r227+r229+r566 <= 100.0; 
r218+r281+r285 <= 100.0; 
r218+r282+r288 <= 100.0; 
r219+r283+r289 <= 100.0; 
r219+r280+r284 <= 100.0; 
r222+r451 <= 100.0; 
r223+r450 <= 100.0; 
r224+r251+r259 <= 100.0; 
r224+r252+r547 <= 100.0; 
r224 <= 100.0; 
r225 <= 100.0; 
r225+r253+r546 <= 100.0; 
r225+r250+r258 <= 100.0; 
r226+r259+r523 <= 100.0; 
r227+r258+r522 <= 100.0; 
r230 <= 100.0; 
r231 <= 100.0; 
r232 <= 100.0; 
r232 <= 100.0; 
r232+r422+r494 <= 100.0; 
r232+r234+r238 <= 100.0; 
r233+r235+r239 <= 100.0; 
r233+r423+r495 <= 100.0; 
r233 <= 100.0; 
r233 <= 100.0; 
r236+r272+r278 <= 100.0; 
r236+r293+r552 <= 100.0; 
r237+r292+r553 <= 100.0; 
r237+r273+r279 <= 100.0; 
r238+r566 <= 100.0; 
r238+r448+r565+r569 <= 100.0; 
r239+r449+r564+r568 <= 100.0; 
r239+r567 <= 100.0; 
r240+r383+r417 <= 100.0; 
r241+r382+r416 <= 100.0; 
r242+r246+r248 <= 100.0; 
r242+r248 <= 100.0; 
r242+r402+r408 <= 100.0; 
r242+r244+r345 <= 100.0; 
r243+r245+r344 <= 100.0; 
r243+r403+r409 <= 100.0; 
r243+r249 <= 100.0; 
r243+r247+r249 <= 100.0; 
r244 <= 100.0; 
r245 <= 100.0; 
r246 <= 100.0; 
r247 <= 100.0; 
r250 <= 100.0; 
r251 <= 100.0; 
r252+r472+r476+r553+r555 <= 100.0; 
r252+r256+r555 <= 100.0; 
r253+r257+r554 <= 100.0; 
r253+r473+r477+r552+r554 <= 100.0; 
r254+r334+r338 <= 100.0; 
r255+r335+r339 <= 100.0; 
r256+r546 <= 100.0; 
r256+r474+r592 <= 100.0; 
r257+r475+r593 <= 100.0; 
r257+r547 <= 100.0; 
r258+r394 <= 100.0; 
r259+r395 <= 100.0; 
r260+r266+r357 <= 100.0; 
r260+r529 <= 100.0; 
r260 <= 100.0; 
r261 <= 100.0; 
r261+r528 <= 100.0; 
r261+r267+r356 <= 100.0; 
r262+r268 <= 100.0; 
r262+r324+r326 <= 100.0; 
r262+r324 <= 100.0; 
r263+r325 <= 100.0; 
r263+r325+r327 <= 100.0; 
r263+r269 <= 100.0; 
r266+r340 <= 100.0; 
r266 <= 100.0; 
r267 <= 100.0; 
r267+r341 <= 100.0; 
r268+r322+r512 <= 100.0; 
r269+r323+r513 <= 100.0; 
r270 <= 100.0; 
r271 <= 100.0; 
r272 <= 100.0; 
r272+r504+r506+r508 <= 100.0; 
r273+r505+r507+r509 <= 100.0; 
r273 <= 100.0; 
r274 <= 100.0; 
r275 <= 100.0; 
r276+r509 <= 100.0; 
r277+r508 <= 100.0; 
r278+r448 <= 100.0; 
r278+r443 <= 100.0; 
r279+r442 <= 100.0; 
r279+r449 <= 100.0; 
r280+r282+r343+r349 <= 100.0; 
r281+r283+r342+r348 <= 100.0; 
r284 <= 100.0; 
r285 <= 100.0; 
r286 <= 100.0; 
r287 <= 100.0; 
r290+r298 <= 100.0; 
r290+r493+r497+r499 <= 100.0; 
r290 <= 100.0; 
r291 <= 100.0; 
r291+r492+r496+r498 <= 100.0; 
r291+r299 <= 100.0; 
r292 <= 100.0; 
r293 <= 100.0; 
r294+r563+r567 <= 100.0; 
r294+r551+r557+r568 <= 100.0; 
r295+r550+r556+r569 <= 100.0; 
r295+r562+r566 <= 100.0; 
r296 <= 100.0; 
r297 <= 100.0; 
r298+r309+r491 <= 100.0; 
r298+r309+r363+r367 <= 100.0; 
r299+r308+r362+r366 <= 100.0; 
r299+r308+r490 <= 100.0; 
r300 <= 100.0; 
r300+r312+r318 <= 100.0; 
r301+r313+r319 <= 100.0; 
r301 <= 100.0; 
r302+r388 <= 100.0; 
r302+r381 <= 100.0; 
r303+r380 <= 100.0; 
r303+r389 <= 100.0; 
r304+r524+r526 <= 100.0; 
r304+r398+r521+r535 <= 100.0; 
r304+r319 <= 100.0; 
r305+r318 <= 100.0; 
r305+r399+r520+r534 <= 100.0; 
r305+r525+r527 <= 100.0; 
r306 <= 100.0; 
r307 <= 100.0; 
r308 <= 100.0; 
r309 <= 100.0; 
r310+r314 <= 100.0; 
r310+r418 <= 100.0; 
r311+r419 <= 100.0; 
r311+r315 <= 100.0; 
r312 <= 100.0; 
r312+r318+r419 <= 100.0; 
r313+r319+r418 <= 100.0; 
r313 <= 100.0; 
r314+r345+r410+r414 <= 100.0; 
r314+r478+r493+r499 <= 100.0; 
r314+r316+r502 <= 100.0; 
r315+r317+r503 <= 100.0; 
r315+r479+r492+r498 <= 100.0; 
r315+r344+r411+r415 <= 100.0; 
r316 <= 100.0; 
r316+r429+r463+r471+r479 <= 100.0; 
r316+r360+r422+r479 <= 100.0; 
r317+r361+r423+r478 <= 100.0; 
r317+r428+r462+r470+r478 <= 100.0; 
r317 <= 100.0; 
r318 <= 100.0; 
r319 <= 100.0; 
r320+r328+r466 <= 100.0; 
r321+r329+r467 <= 100.0; 
r324 <= 100.0; 
r325 <= 100.0; 
r330+r336 <= 100.0; 
r331+r337 <= 100.0; 
r334 <= 100.0; 
r334+r347+r408 <= 100.0; 
r335+r346+r409 <= 100.0; 
r335 <= 100.0; 
r338+r585 <= 100.0; 
r339+r584 <= 100.0; 
r340+r348 <= 100.0; 
r340 <= 100.0; 
r341 <= 100.0; 
r341+r349 <= 100.0; 
r342+r414+r498 <= 100.0; 
r342+r500 <= 100.0; 
r343+r501 <= 100.0; 
r343+r415+r499 <= 100.0; 
r346+r473+r479 <= 100.0; 
r346 <= 100.0; 
r347 <= 100.0; 
r347+r472+r478 <= 100.0; 
r350+r354+r485 <= 100.0; 
r350+r358+r482+r488 <= 100.0; 
r351+r359+r483+r489 <= 100.0; 
r351+r355+r484 <= 100.0; 
r352+r358+r484 <= 100.0; 
r352+r446+r483+r487 <= 100.0; 
r352+r356+r483 <= 100.0; 
r353+r357+r482 <= 100.0; 
r353+r447+r482+r486 <= 100.0; 
r353+r359+r485 <= 100.0; 
r358+r481+r574 <= 100.0; 
r359+r480+r575 <= 100.0; 
r360+r364+r386+r427+r475 <= 100.0; 
r360+r490 <= 100.0; 
r361+r491 <= 100.0; 
r361+r365+r387+r426+r474 <= 100.0; 
r362+r368+r474+r544 <= 100.0; 
r363+r369+r475+r545 <= 100.0; 
r364+r420 <= 100.0; 
r364 <= 100.0; 
r364 <= 100.0; 
r365 <= 100.0; 
r365 <= 100.0; 
r365+r421 <= 100.0; 
r366+r426 <= 100.0; 
r367+r427 <= 100.0; 
r368+r543 <= 100.0; 
r368+r406 <= 100.0; 
r368 <= 100.0; 
r369 <= 100.0; 
r369+r407 <= 100.0; 
r369+r542 <= 100.0; 
r370+r376 <= 100.0; 
r371+r377 <= 100.0; 
r372 <= 100.0; 
r372+r376+r537 <= 100.0; 
r373+r377+r536 <= 100.0; 
r373 <= 100.0; 
r378+r565 <= 100.0; 
r378+r436+r510 <= 100.0; 
r379+r437+r511 <= 100.0; 
r379+r564 <= 100.0; 
r380 <= 100.0; 
r381 <= 100.0; 
r382+r591 <= 100.0; 
r383+r590 <= 100.0; 
r384+r590 <= 100.0; 
r385+r591 <= 100.0; 
r386 <= 100.0; 
r386+r424 <= 100.0; 
r387+r425 <= 100.0; 
r387 <= 100.0; 
r390+r394 <= 100.0; 
r391+r395 <= 100.0; 
r392+r433+r537 <= 100.0; 
r393+r432+r536 <= 100.0; 
r396 <= 100.0; 
r397 <= 100.0; 
r398+r522 <= 100.0; 
r398+r453+r536 <= 100.0; 
r399+r452+r537 <= 100.0; 
r399+r523 <= 100.0; 
r400+r402 <= 100.0; 
r401+r403 <= 100.0; 
r404 <= 100.0; 
r405 <= 100.0; 
r406 <= 100.0; 
r407 <= 100.0; 
r408 <= 100.0; 
r409 <= 100.0; 
r410+r492 <= 100.0; 
r411+r493 <= 100.0; 
r412 <= 100.0; 
r413 <= 100.0; 
r414+r496+r498 <= 100.0; 
r415+r497+r499 <= 100.0; 
r420+r559 <= 100.0; 
r421+r558 <= 100.0; 
r424 <= 100.0; 
r425 <= 100.0; 
r428+r592 <= 100.0; 
r429+r593 <= 100.0; 
r430+r434 <= 100.0; 
r430 <= 100.0; 
r431 <= 100.0; 
r431+r435 <= 100.0; 
r432+r438+r459 <= 100.0; 
r433+r439+r458 <= 100.0; 
r436+r461 <= 100.0; 
r436+r510+r557+r561 <= 100.0; 
r437+r511+r556+r560 <= 100.0; 
r437+r460 <= 100.0; 
r438+r453+r459 <= 100.0; 
r438 <= 100.0; 
r438 <= 100.0; 
r439 <= 100.0; 
r439 <= 100.0; 
r439+r452+r458 <= 100.0; 
r442+r446 <= 100.0; 
r442+r507 <= 100.0; 
r443+r506 <= 100.0; 
r443+r447 <= 100.0; 
r446+r574 <= 100.0; 
r447+r575 <= 100.0; 
r448+r450 <= 100.0; 
r448+r542 <= 100.0; 
r449+r543 <= 100.0; 
r449+r451 <= 100.0; 
r452+r521+r532 <= 100.0; 
r452+r456+r526 <= 100.0; 
r453+r457+r527 <= 100.0; 
r453+r520+r533 <= 100.0; 
r454+r510+r514 <= 100.0; 
r454 <= 100.0; 
r455 <= 100.0; 
r455+r511+r515 <= 100.0; 
r456 <= 100.0; 
r456 <= 100.0; 
r457 <= 100.0; 
r457 <= 100.0; 
r458 <= 100.0; 
r458+r545 <= 100.0; 
r459+r544 <= 100.0; 
r459 <= 100.0; 
r460+r466 <= 100.0; 
r460+r513+r561 <= 100.0; 
r461+r512+r560 <= 100.0; 
r461+r467 <= 100.0; 
r462+r468 <= 100.0; 
r462 <= 100.0; 
r463 <= 100.0; 
r463+r469 <= 100.0; 
r464+r466+r488 <= 100.0; 
r465+r467+r489 <= 100.0; 
r468 <= 100.0; 
r469 <= 100.0; 
r470+r474 <= 100.0; 
r471+r475 <= 100.0; 
r472 <= 100.0; 
r472+r476+r556 <= 100.0; 
r473+r477+r557 <= 100.0; 
r473 <= 100.0; 
r476 <= 100.0; 
r476+r517 <= 100.0; 
r477+r516 <= 100.0; 
r477 <= 100.0; 
r486 <= 100.0; 
r487 <= 100.0; 
r488 <= 100.0; 
r488 <= 100.0; 
r489 <= 100.0; 
r489 <= 100.0; 
r496+r503 <= 100.0; 
r497+r502 <= 100.0; 
r500+r579 <= 100.0; 
r501+r578 <= 100.0; 
r502+r504 <= 100.0; 
r503+r505 <= 100.0; 
r504 <= 100.0; 
r505 <= 100.0; 
r516 <= 100.0; 
r517 <= 100.0; 
r518 <= 100.0; 
r519 <= 100.0; 
r522 <= 100.0; 
r523 <= 100.0; 
r524+r532 <= 100.0; 
r524 <= 100.0; 
r525 <= 100.0; 
r525+r533 <= 100.0; 
r526 <= 100.0; 
r527 <= 100.0; 
r528 <= 100.0; 
r528+r559 <= 100.0; 
r529+r558 <= 100.0; 
r529 <= 100.0; 
r530 <= 100.0; 
r531 <= 100.0; 
r532 <= 100.0; 
r533 <= 100.0; 
r534 <= 100.0; 
r535 <= 100.0; 
r538 <= 100.0; 
r538 <= 100.0; 
r539 <= 100.0; 
r539 <= 100.0; 
r540+r546+r548+r571+r577 <= 100.0; 
r541+r547+r549+r570+r576 <= 100.0; 
r542+r544 <= 100.0; 
r543+r545 <= 100.0; 
r546 <= 100.0; 
r547 <= 100.0; 
r550 <= 100.0; 
r551 <= 100.0; 
r552 <= 100.0; 
r553 <= 100.0; 
r558 <= 100.0; 
r559 <= 100.0; 
r560 <= 100.0; 
r561 <= 100.0; 
r562 <= 100.0; 
r563 <= 100.0; 
r570 <= 100.0; 
r571 <= 100.0; 
r572 <= 100.0; 
r573 <= 100.0; 
r576 <= 100.0; 
r577 <= 100.0; 
r578 <= 100.0; 
r578+r582+r588 <= 100.0; 
r579+r583+r589 <= 100.0; 
r579 <= 100.0; 
r580+r584 <= 100.0; 
r581+r585 <= 100.0; 
r586 <= 100.0; 
r587 <= 100.0; 
r588 <= 100.0; 
r589 <= 100.0; 
r594+r598 <= 100.0; 
r595+r599 <= 100.0; 
r0+r2+r4+r6+r8 -Z > 0.0; 
r1+r3+r5+r7+r9 -Z > 0.0; 
r10+r12+r14+r16+r18 -Z > 0.0; 
r11+r13+r15+r17+r19 -Z > 0.0; 
r20+r22+r24+r26+r28 -Z > 0.0; 
r21+r23+r25+r27+r29 -Z > 0.0; 
r30+r32+r34+r36+r38 -Z > 0.0; 
r31+r33+r35+r37+r39 -Z > 0.0; 
r40+r42+r44+r46+r48 -Z > 0.0; 
r41+r43+r45+r47+r49 -Z > 0.0; 
r50+r52+r54+r56+r58 -Z > 0.0; 
r51+r53+r55+r57+r59 -Z > 0.0; 
r60+r62+r64+r66+r68 -Z > 0.0; 
r61+r63+r65+r67+r69 -Z > 0.0; 
r70+r72+r74+r76+r78 -Z > 0.0; 
r71+r73+r75+r77+r79 -Z > 0.0; 
r80+r82+r84+r86+r88 -Z > 0.0; 
r81+r83+r85+r87+r89 -Z > 0.0; 
r90+r92+r94+r96+r98 -Z > 0.0; 
r91+r93+r95+r97+r99 -Z > 0.0; 
r100+r102+r104+r106+r108 -Z > 0.0; 
r101+r103+r105+r107+r109 -Z > 0.0; 
r110+r112+r114+r116+r118 -Z > 0.0; 
r111+r113+r115+r117+r119 -Z > 0.0; 
r120+r122+r124+r126+r128 -Z > 0.0; 
r121+r123+r125+r127+r129 -Z > 0.0; 
r130+r132+r134+r136+r138 -Z > 0.0; 
r131+r133+r135+r137+r139 -Z > 0.0; 
r140+r142+r144+r146+r148 -Z > 0.0; 
r141+r143+r145+r147+r149 -Z > 0.0; 
r150+r152+r154+r156+r158 -Z > 0.0; 
r151+r153+r155+r157+r159 -Z > 0.0; 
r160+r162+r164+r166+r168 -Z > 0.0; 
r161+r163+r165+r167+r169 -Z > 0.0; 
r170+r172+r174+r176+r178 -Z > 0.0; 
r171+r173+r175+r177+r179 -Z > 0.0; 
r180+r182+r184+r186+r188 -Z > 0.0; 
r181+r183+r185+r187+r189 -Z > 0.0; 
r190+r192+r194+r196+r198 -Z > 0.0; 
r191+r193+r195+r197+r199 -Z > 0.0; 
r200+r202+r204+r206+r208 -Z > 0.0; 
r201+r203+r205+r207+r209 -Z > 0.0; 
r210+r212+r214+r216+r218 -Z > 0.0; 
r211+r213+r215+r217+r219 -Z > 0.0; 
r220+r222+r224+r226+r228 -Z > 0.0; 
r221+r223+r225+r227+r229 -Z > 0.0; 
r230+r232+r234+r236+r238 -Z > 0.0; 
r231+r233+r235+r237+r239 -Z > 0.0; 
r240+r242+r244+r246+r248 -Z > 0.0; 
r241+r243+r245+r247+r249 -Z > 0.0; 
r250+r252+r254+r256+r258 -Z > 0.0; 
r251+r253+r255+r257+r259 -Z > 0.0; 
r260+r262+r264+r266+r268 -Z > 0.0; 
r261+r263+r265+r267+r269 -Z > 0.0; 
r270+r272+r274+r276+r278 -Z > 0.0; 
r271+r273+r275+r277+r279 -Z > 0.0; 
r280+r282+r284+r286+r288 -Z > 0.0; 
r281+r283+r285+r287+r289 -Z > 0.0; 
r290+r292+r294+r296+r298 -Z > 0.0; 
r291+r293+r295+r297+r299 -Z > 0.0; 
r300+r302+r304+r306+r308 -Z > 0.0; 
r301+r303+r305+r307+r309 -Z > 0.0; 
r310+r312+r314+r316+r318 -Z > 0.0; 
r311+r313+r315+r317+r319 -Z > 0.0; 
r320+r322+r324+r326+r328 -Z > 0.0; 
r321+r323+r325+r327+r329 -Z > 0.0; 
r330+r332+r334+r336+r338 -Z > 0.0; 
r331+r333+r335+r337+r339 -Z > 0.0; 
r340+r342+r344+r346+r348 -Z > 0.0; 
r341+r343+r345+r347+r349 -Z > 0.0; 
r350+r352+r354+r356+r358 -Z > 0.0; 
r351+r353+r355+r357+r359 -Z > 0.0; 
r360+r362+r364+r366+r368 -Z > 0.0; 
r361+r363+r365+r367+r369 -Z > 0.0; 
r370+r372+r374+r376+r378 -Z > 0.0; 
r371+r373+r375+r377+r379 -Z > 0.0; 
r380+r382+r384+r386+r388 -Z > 0.0; 
r381+r383+r385+r387+r389 -Z > 0.0; 
r390+r392+r394+r396+r398 -Z > 0.0; 
r391+r393+r395+r397+r399 -Z > 0.0; 
r400+r402+r404+r406+r408 -Z > 0.0; 
r401+r403+r405+r407+r409 -Z > 0.0; 
r410+r412+r414+r416+r418 -Z > 0.0; 
r411+r413+r415+r417+r419 -Z > 0.0; 
r420+r422+r424+r426+r428 -Z > 0.0; 
r421+r423+r425+r427+r429 -Z > 0.0; 
r430+r432+r434+r436+r438 -Z > 0.0; 
r431+r433+r435+r437+r439 -Z > 0.0; 
r440+r442+r444+r446+r448 -Z > 0.0; 
r441+r443+r445+r447+r449 -Z > 0.0; 
r450+r452+r454+r456+r458 -Z > 0.0; 
r451+r453+r455+r457+r459 -Z > 0.0; 
r460+r462+r464+r466+r468 -Z > 0.0; 
r461+r463+r465+r467+r469 -Z > 0.0; 
r470+r472+r474+r476+r478 -Z > 0.0; 
r471+r473+r475+r477+r479 -Z > 0.0; 
r480+r482+r484+r486+r488 -Z > 0.0; 
r481+r483+r485+r487+r489 -Z > 0.0; 
r490+r492+r494+r496+r498 -Z > 0.0; 
r491+r493+r495+r497+r499 -Z > 0.0; 
r500+r502+r504+r506+r508 -Z > 0.0; 
r501+r503+r505+r507+r509 -Z > 0.0; 
r510+r512+r514+r516+r518 -Z > 0.0; 
r511+r513+r515+r517+r519 -Z > 0.0; 
r520+r522+r524+r526+r528 -Z > 0.0; 
r521+r523+r525+r527+r529 -Z > 0.0; 
r530+r532+r534+r536+r538 -Z > 0.0; 
r531+r533+r535+r537+r539 -Z > 0.0; 
r540+r542+r544+r546+r548 -Z > 0.0; 
r541+r543+r545+r547+r549 -Z > 0.0; 
r550+r552+r554+r556+r558 -Z > 0.0; 
r551+r553+r555+r557+r559 -Z > 0.0; 
r560+r562+r564+r566+r568 -Z > 0.0; 
r561+r563+r565+r567+r569 -Z > 0.0; 
r570+r572+r574+r576+r578 -Z > 0.0; 
r571+r573+r575+r577+r579 -Z > 0.0; 
r580+r582+r584+r586+r588 -Z > 0.0; 
r581+r583+r585+r587+r589 -Z > 0.0; 
r590+r592+r594+r596+r598 -Z > 0.0; 
r591+r593+r595+r597+r599 -Z > 0.0; 
